N = 126;
M = 284;
Edge_Start = [1, 1, 2, 3, 4, 5, 5, 7, 7, 8, 9, 9, 10, 11, 11, 12, 13, 13, 14, 15, 17, 17, 19, 19, 20, 21, 22, 23, 24, 25, 27, 27, 29, 29, 30, 31, 32, 33, 34, 34, 36, 36, 37, 38, 38, 39, 40, 40, 42, 44, 44, 45, 46, 48, 49, 49, 50, 51, 52, 53, 53, 55, 55, 57, 57, 58, 59, 59, 60, 61, 61, 62, 64, 64, 65, 66, 66, 68, 70, 70, 71, 72, 72, 73, 74, 74, 75, 76, 77, 78, 78, 80, 81, 81, 82, 83, 83, 84, 85, 85, 86, 87, 89, 90, 91, 93, 93, 94, 95, 96, 96, 97, 98, 98, 99, 100, 100, 101, 102, 103, 104, 104, 106, 106, 107, 108, 108, 109, 110, 110, 112, 113, 114, 115, 116, 117, 118, 119, 120, 121, 122, 124, 2, 16, 3, 18, 5, 6, 20, 8, 22, 9, 10, 24, 11, 12, 26, 13, 14, 28, 15, 30, 18, 33, 20, 35, 21, 22, 23, 24, 25, 41, 28, 43, 30, 45, 31, 47, 48, 34, 35, 50, 37, 52, 38, 39, 54, 40, 41, 56, 43, 45, 60, 46, 47, 49, 50, 65, 51, 52, 53, 54, 69, 56, 71, 58, 73, 59, 60, 75, 61, 62, 77, 63, 65, 80, 66, 67, 82, 84, 71, 86, 72, 73, 88, 74, 75, 90, 76, 92, 78, 79, 94, 81, 82, 97, 83, 84, 99, 85, 86, 101, 87, 88, 105, 91, 92, 94, 109, 95, 111, 97, 112, 98, 99, 114, 100, 101, 116, 102, 118, 104, 105, 120, 107, 122, 108, 109, 124, 110, 111, 126, 113, 114, 115, 116, 117, 118, 119, 120, 121, 122, 123, 125];
Edge_End = [2, 16, 3, 18, 5, 6, 20, 8, 22, 9, 10, 24, 11, 12, 26, 13, 14, 28, 15, 30, 18, 33, 20, 35, 21, 22, 23, 24, 25, 41, 28, 43, 30, 45, 31, 47, 48, 34, 35, 50, 37, 52, 38, 39, 54, 40, 41, 56, 43, 45, 60, 46, 47, 49, 50, 65, 51, 52, 53, 54, 69, 56, 71, 58, 73, 59, 60, 75, 61, 62, 77, 63, 65, 80, 66, 67, 82, 84, 71, 86, 72, 73, 88, 74, 75, 90, 76, 92, 78, 79, 94, 81, 82, 97, 83, 84, 99, 85, 86, 101, 87, 88, 105, 91, 92, 94, 109, 95, 111, 97, 112, 98, 99, 114, 100, 101, 116, 102, 118, 104, 105, 120, 107, 122, 108, 109, 124, 110, 111, 126, 113, 114, 115, 116, 117, 118, 119, 120, 121, 122, 123, 125, 1, 1, 2, 3, 4, 5, 5, 7, 7, 8, 9, 9, 10, 11, 11, 12, 13, 13, 14, 15, 17, 17, 19, 19, 20, 21, 22, 23, 24, 25, 27, 27, 29, 29, 30, 31, 32, 33, 34, 34, 36, 36, 37, 38, 38, 39, 40, 40, 42, 44, 44, 45, 46, 48, 49, 49, 50, 51, 52, 53, 53, 55, 55, 57, 57, 58, 59, 59, 60, 61, 61, 62, 64, 64, 65, 66, 66, 68, 70, 70, 71, 72, 72, 73, 74, 74, 75, 76, 77, 78, 78, 80, 81, 81, 82, 83, 83, 84, 85, 85, 86, 87, 89, 90, 91, 93, 93, 94, 95, 96, 96, 97, 98, 98, 99, 100, 100, 101, 102, 103, 104, 104, 106, 106, 107, 108, 108, 109, 110, 110, 112, 113, 114, 115, 116, 117, 118, 119, 120, 121, 122, 124];
L = [8, 15, 11, 16, 9, 18, 14, 14, 16, 14, 3, 11, 18, 7, 5, 3, 12, 15, 2, 18, 7, 12, 2, 7, 16, 3, 8, 7, 1, 11, 14, 17, 11, 18, 1, 12, 11, 1, 8, 18, 17, 9, 10, 18, 3, 6, 16, 17, 6, 14, 14, 15, 16, 1, 6, 16, 12, 4, 9, 14, 3, 10, 7, 1, 15, 14, 14, 4, 14, 17, 17, 7, 13, 15, 15, 5, 9, 10, 17, 15, 3, 17, 15, 6, 16, 5, 5, 13, 11, 14, 8, 13, 12, 15, 1, 15, 18, 1, 18, 10, 16, 18, 8, 18, 19, 6, 9, 12, 2, 2, 14, 3, 3, 2, 16, 4, 13, 18, 10, 1, 16, 12, 17, 5, 16, 3, 6, 17, 1, 8, 17, 2, 12, 10, 1, 16, 16, 2, 1, 3, 1, 2, 8, 15, 11, 16, 9, 18, 14, 14, 16, 14, 3, 11, 18, 7, 5, 3, 12, 15, 2, 18, 7, 12, 2, 7, 16, 3, 8, 7, 1, 11, 14, 17, 11, 18, 1, 12, 11, 1, 8, 18, 17, 9, 10, 18, 3, 6, 16, 17, 6, 14, 14, 15, 16, 1, 6, 16, 12, 4, 9, 14, 3, 10, 7, 1, 15, 14, 14, 4, 14, 17, 17, 7, 13, 15, 15, 5, 9, 10, 17, 15, 3, 17, 15, 6, 16, 5, 5, 13, 11, 14, 8, 13, 12, 15, 1, 15, 18, 1, 18, 10, 16, 18, 8, 18, 19, 6, 9, 12, 2, 2, 14, 3, 3, 2, 16, 4, 13, 18, 10, 1, 16, 12, 17, 5, 16, 3, 6, 17, 1, 8, 17, 2, 12, 10, 1, 16, 16, 2, 1, 3, 1, 2];
T = [4, 19, 17, 10, 8, 26, 13, 9, 13, 9, 1, 6, 19, 11, 3, 1, 17, 9, 3, 13, 8, 22, 1, 7, 11, 9, 11, 7, 1, 9, 21, 18, 14, 22, 1, 16, 2, 3, 23, 9, 15, 12, 3, 24, 1, 12, 12, 15, 1, 13, 14, 17, 15, 1, 14, 16, 8, 4, 14, 11, 1, 1, 8, 1, 8, 12, 18, 9, 14, 16, 22, 14, 6, 15, 8, 7, 6, 25, 17, 23, 5, 15, 16, 3, 10, 11, 12, 14, 11, 18, 8, 7, 14, 17, 2, 19, 14, 7, 18, 12, 14, 13, 10, 25, 14, 12, 17, 10, 2, 1, 16, 8, 7, 1, 8, 1, 12, 17, 9, 3, 20, 12, 10, 6, 23, 6, 2, 20, 1, 10, 14, 1, 13, 7, 1, 18, 26, 2, 1, 1, 7, 6, 4, 19, 17, 10, 8, 26, 13, 9, 13, 9, 1, 6, 19, 11, 3, 1, 17, 9, 3, 13, 8, 22, 1, 7, 11, 9, 11, 7, 1, 9, 21, 18, 14, 22, 1, 16, 2, 3, 23, 9, 15, 12, 3, 24, 1, 12, 12, 15, 1, 13, 14, 17, 15, 1, 14, 16, 8, 4, 14, 11, 1, 1, 8, 1, 8, 12, 18, 9, 14, 16, 22, 14, 6, 15, 8, 7, 6, 25, 17, 23, 5, 15, 16, 3, 10, 11, 12, 14, 11, 18, 8, 7, 14, 17, 2, 19, 14, 7, 18, 12, 14, 13, 10, 25, 14, 12, 17, 10, 2, 1, 16, 8, 7, 1, 8, 1, 12, 17, 9, 3, 20, 12, 10, 6, 23, 6, 2, 20, 1, 10, 14, 1, 13, 7, 1, 18, 26, 2, 1, 1, 7, 6];
Lower_Bound = [0, 4, 21, 116, 108, 134, 128, 137, 139, 140, 159, 170, 171, 188, 191, 19, 39, 31, 94, 95, 106, 115, 126, 133, 134, 162, 201, 180, 218, 204, 205, 90, 61, 64, 87, 97, 112, 111, 135, 147, 143, 220, 219, 244, 240, 236, 221, 88, 87, 73, 81, 85, 99, 110, 163, 162, 199, 200, 212, 230, 244, 260, 274, 109, 103, 111, 118, 163, 100, 186, 171, 176, 191, 194, 204, 216, 266, 277, 295, 124, 131, 117, 119, 138, 145, 163, 177, 190, 238, 205, 230, 230, 260, 272, 266, 149, 148, 140, 133, 141, 142, 159, 211, 208, 228, 204, 214, 237, 243, 263, 264, 156, 142, 141, 154, 153, 154, 168, 194, 196, 197, 198, 205, 239, 245, 273];
Upper_Bound = [0, 4, 21, 116, 108, 134, 128, 137, 139, 140, 159, 170, 171, 188, 191, 19, 39, 31, 94, 95, 106, 115, 126, 133, 134, 162, 201, 180, 218, 204, 205, 90, 61, 64, 87, 97, 112, 111, 135, 147, 143, 220, 219, 244, 240, 236, 221, 88, 87, 73, 81, 85, 99, 110, 163, 162, 199, 200, 212, 230, 244, 260, 274, 109, 103, 111, 118, 163, 100, 186, 171, 176, 191, 194, 204, 216, 266, 277, 295, 124, 131, 117, 119, 138, 145, 163, 177, 190, 238, 205, 230, 230, 260, 272, 266, 149, 148, 140, 133, 141, 142, 159, 211, 208, 228, 204, 214, 237, 243, 263, 264, 156, 142, 141, 154, 153, 154, 168, 194, 196, 197, 198, 205, 239, 245, 273];
Start = 1;
End = 126;
Time = 273;
